SECTION Graph
Nodes 735
Edges 1256
E 1 2 5
E 2 3 5
E 3 4 5
E 4 5 5
E 5 6 5
E 6 7 5
E 8 9 5
E 9 10 5
E 10 11 5
E 11 12 5
E 12 13 5
E 13 14 5
E 14 15 5
E 15 16 5
E 16 17 5
E 17 18 5
E 18 19 5
E 19 20 5
E 20 21 5
E 23 24 5
E 24 25 5
E 25 26 5
E 26 27 5
E 27 28 5
E 28 29 5
E 29 30 5
E 30 31 5
E 31 32 5
E 32 33 5
E 33 34 5
E 34 35 5
E 35 36 5
E 36 37 5
E 38 39 5
E 40 41 5
E 41 42 5
E 42 43 5
E 1 44 13
E 3 45 13
E 4 46 13
E 6 48 13
E 7 49 13
E 8 50 13
E 10 52 13
E 11 53 13
E 12 54 13
E 13 55 13
E 14 56 13
E 16 57 13
E 17 58 13
E 19 60 13
E 20 61 13
E 21 62 13
E 22 63 13
E 23 64 13
E 24 65 13
E 25 66 13
E 27 68 13
E 28 69 13
E 30 71 13
E 31 72 13
E 32 73 13
E 33 74 13
E 34 75 13
E 35 76 13
E 37 77 13
E 38 78 13
E 39 79 13
E 40 80 13
E 42 81 13
E 43 82 13
E 45 46 5
E 46 47 5
E 47 48 5
E 48 49 5
E 50 51 5
E 51 52 5
E 52 53 5
E 53 54 5
E 54 55 5
E 55 56 5
E 57 58 5
E 58 59 5
E 59 60 5
E 60 61 5
E 61 62 5
E 64 65 5
E 65 66 5
E 66 67 5
E 67 68 5
E 68 69 5
E 69 70 5
E 70 71 5
E 71 72 5
E 72 73 5
E 73 74 5
E 74 75 5
E 75 76 5
E 78 79 5
E 81 82 5
E 44 83 13
E 45 84 13
E 46 85 13
E 47 86 13
E 48 87 13
E 49 88 13
E 50 90 13
E 52 92 13
E 53 93 13
E 54 94 13
E 55 95 13
E 56 96 13
E 57 97 13
E 59 99 13
E 61 101 13
E 62 102 13
E 63 104 13
E 64 106 13
E 65 107 13
E 66 108 13
E 67 109 13
E 68 110 13
E 69 111 13
E 70 112 13
E 71 113 13
E 72 114 13
E 73 115 13
E 74 116 13
E 76 118 13
E 77 119 13
E 78 121 13
E 79 122 13
E 80 124 13
E 81 125 13
E 82 126 13
E 84 85 5
E 85 86 5
E 86 87 5
E 87 88 5
E 88 89 5
E 89 90 5
E 90 91 5
E 91 92 5
E 92 93 5
E 93 94 5
E 94 95 5
E 95 96 5
E 97 98 5
E 98 99 5
E 99 100 5
E 100 101 5
E 101 102 5
E 102 103 5
E 103 104 5
E 104 105 5
E 105 106 5
E 106 107 5
E 107 108 5
E 108 109 5
E 109 110 5
E 110 111 5
E 111 112 5
E 112 113 5
E 113 114 5
E 114 115 5
E 115 116 5
E 116 117 5
E 117 118 5
E 119 120 5
E 120 121 5
E 121 122 5
E 122 123 5
E 123 124 5
E 125 126 5
E 83 127 13
E 84 129 13
E 85 130 13
E 86 131 13
E 87 132 13
E 88 133 13
E 89 134 13
E 90 135 13
E 92 136 13
E 93 137 13
E 94 138 13
E 96 140 13
E 97 142 13
E 98 143 13
E 99 144 13
E 100 145 13
E 101 146 13
E 102 147 13
E 103 148 13
E 104 149 13
E 105 150 13
E 106 151 13
E 108 153 13
E 110 155 13
E 111 156 13
E 112 157 13
E 114 159 13
E 115 160 13
E 116 161 13
E 117 162 13
E 118 163 13
E 119 165 13
E 120 166 13
E 121 167 13
E 122 168 13
E 123 169 13
E 124 170 13
E 125 172 13
E 126 173 13
E 127 128 5
E 128 129 5
E 129 130 5
E 130 131 5
E 131 132 5
E 132 133 5
E 133 134 5
E 134 135 5
E 136 137 5
E 137 138 5
E 138 139 5
E 139 140 5
E 140 141 5
E 141 142 5
E 142 143 5
E 143 144 5
E 144 145 5
E 145 146 5
E 146 147 5
E 147 148 5
E 148 149 5
E 149 150 5
E 150 151 5
E 151 152 5
E 152 153 5
E 153 154 5
E 154 155 5
E 155 156 5
E 156 157 5
E 157 158 5
E 158 159 5
E 159 160 5
E 160 161 5
E 161 162 5
E 162 163 5
E 163 164 5
E 164 165 5
E 165 166 5
E 166 167 5
E 167 168 5
E 168 169 5
E 169 170 5
E 170 171 5
E 171 172 5
E 172 173 5
E 127 174 13
E 128 175 13
E 129 176 13
E 130 177 13
E 131 178 13
E 133 179 13
E 134 180 13
E 135 181 13
E 136 182 13
E 138 184 13
E 139 185 13
E 140 186 13
E 141 187 13
E 142 188 13
E 143 189 13
E 144 190 13
E 146 191 13
E 148 193 13
E 149 194 13
E 150 195 13
E 151 196 13
E 152 197 13
E 153 198 13
E 154 199 13
E 155 200 13
E 156 201 13
E 157 202 13
E 158 203 13
E 159 204 13
E 160 205 13
E 161 206 13
E 163 208 13
E 164 209 13
E 165 210 13
E 166 211 13
E 167 212 13
E 169 213 13
E 170 214 13
E 171 215 13
E 172 216 13
E 173 217 13
E 174 175 5
E 175 176 5
E 176 177 5
E 177 178 5
E 179 180 5
E 180 181 5
E 182 183 5
E 183 184 5
E 184 185 5
E 185 186 5
E 186 187 5
E 187 188 5
E 188 189 5
E 189 190 5
E 191 192 5
E 192 193 5
E 193 194 5
E 194 195 5
E 195 196 5
E 196 197 5
E 197 198 5
E 198 199 5
E 199 200 5
E 200 201 5
E 201 202 5
E 202 203 5
E 203 204 5
E 204 205 5
E 205 206 5
E 206 207 5
E 207 208 5
E 208 209 5
E 209 210 5
E 210 211 5
E 211 212 5
E 213 214 5
E 214 215 5
E 215 216 5
E 216 217 5
E 174 218 13
E 175 219 13
E 177 220 13
E 178 221 13
E 179 223 13
E 180 224 13
E 181 225 13
E 182 227 13
E 183 228 13
E 184 229 13
E 186 230 13
E 187 231 13
E 189 233 13
E 190 234 13
E 191 235 13
E 192 236 13
E 193 237 13
E 194 238 13
E 196 239 13
E 197 240 13
E 198 241 13
E 200 243 13
E 202 245 13
E 203 246 13
E 204 247 13
E 205 248 13
E 206 249 13
E 207 250 13
E 208 251 13
E 209 252 13
E 210 253 13
E 211 254 13
E 212 255 13
E 213 256 13
E 216 259 13
E 217 260 13
E 218 219 5
E 220 221 5
E 221 222 5
E 222 223 5
E 223 224 5
E 224 225 5
E 225 226 5
E 226 227 5
E 227 228 5
E 228 229 5
E 230 231 5
E 231 232 5
E 232 233 5
E 233 234 5
E 235 236 5
E 236 237 5
E 237 238 5
E 239 240 5
E 240 241 5
E 241 242 5
E 242 243 5
E 243 244 5
E 244 245 5
E 245 246 5
E 246 247 5
E 247 248 5
E 248 249 5
E 249 250 5
E 250 251 5
E 251 252 5
E 252 253 5
E 253 254 5
E 254 255 5
E 256 257 5
E 257 258 5
E 258 259 5
E 259 260 5
E 218 261 13
E 219 262 13
E 220 263 13
E 221 264 13
E 222 265 13
E 223 266 13
E 225 267 13
E 226 268 13
E 227 269 13
E 229 270 13
E 230 271 13
E 231 272 13
E 232 273 13
E 233 274 13
E 234 275 13
E 235 277 13
E 236 278 13
E 237 279 13
E 238 280 13
E 239 281 13
E 240 282 13
E 241 283 13
E 242 284 13
E 243 285 13
E 244 286 13
E 245 287 13
E 246 288 13
E 247 289 13
E 249 290 13
E 252 291 13
E 253 292 13
E 254 293 13
E 255 294 13
E 256 296 13
E 257 297 13
E 258 298 13
E 259 299 13
E 260 300 13
E 261 262 5
E 263 264 5
E 264 265 5
E 265 266 5
E 267 268 5
E 268 269 5
E 271 272 5
E 272 273 5
E 273 274 5
E 274 275 5
E 275 276 5
E 276 277 5
E 277 278 5
E 278 279 5
E 279 280 5
E 281 282 5
E 282 283 5
E 283 284 5
E 284 285 5
E 285 286 5
E 286 287 5
E 287 288 5
E 288 289 5
E 291 292 5
E 292 293 5
E 293 294 5
E 294 295 5
E 295 296 5
E 296 297 5
E 297 298 5
E 298 299 5
E 299 300 5
E 261 301 13
E 262 302 13
E 263 304 13
E 266 307 13
E 267 308 13
E 269 309 13
E 270 310 13
E 271 312 13
E 274 315 13
E 275 316 13
E 276 317 13
E 277 318 13
E 278 319 13
E 279 320 13
E 280 321 13
E 281 323 13
E 282 324 13
E 283 325 13
E 286 328 13
E 287 329 13
E 288 330 13
E 289 331 13
E 290 332 13
E 291 333 13
E 292 334 13
E 293 335 13
E 294 336 13
E 295 337 13
E 296 338 13
E 297 339 13
E 299 340 13
E 300 341 13
E 301 302 5
E 302 303 5
E 303 304 5
E 304 305 5
E 305 306 5
E 306 307 5
E 310 311 5
E 311 312 5
E 312 313 5
E 313 314 5
E 314 315 5
E 315 316 5
E 316 317 5
E 317 318 5
E 318 319 5
E 319 320 5
E 320 321 5
E 321 322 5
E 322 323 5
E 323 324 5
E 324 325 5
E 325 326 5
E 326 327 5
E 327 328 5
E 328 329 5
E 329 330 5
E 330 331 5
E 333 334 5
E 334 335 5
E 335 336 5
E 336 337 5
E 337 338 5
E 338 339 5
E 340 341 5
E 301 342 13
E 302 343 13
E 303 344 13
E 304 345 13
E 305 346 13
E 306 347 13
E 307 348 13
E 308 350 13
E 309 352 13
E 310 354 13
E 311 355 13
E 312 356 13
E 313 357 13
E 314 358 13
E 315 359 13
E 316 360 13
E 317 361 13
E 318 362 13
E 319 363 13
E 320 364 13
E 321 365 13
E 322 366 13
E 323 367 13
E 324 368 13
E 325 369 13
E 326 370 13
E 327 371 13
E 328 372 13
E 329 373 13
E 330 374 13
E 331 375 13
E 332 377 13
E 333 380 13
E 334 381 13
E 335 382 13
E 336 383 13
E 338 384 13
E 339 385 13
E 340 386 13
E 341 387 13
E 342 343 5
E 343 344 5
E 344 345 5
E 345 346 5
E 346 347 5
E 347 348 5
E 348 349 5
E 349 350 5
E 350 351 5
E 351 352 5
E 352 353 5
E 353 354 5
E 354 355 5
E 355 356 5
E 356 357 5
E 357 358 5
E 358 359 5
E 359 360 5
E 360 361 5
E 361 362 5
E 362 363 5
E 363 364 5
E 364 365 5
E 365 366 5
E 366 367 5
E 367 368 5
E 368 369 5
E 369 370 5
E 370 371 5
E 371 372 5
E 372 373 5
E 373 374 5
E 374 375 5
E 375 376 5
E 376 377 5
E 377 378 5
E 378 379 5
E 379 380 5
E 380 381 5
E 381 382 5
E 382 383 5
E 384 385 5
E 386 387 5
E 342 388 13
E 343 389 13
E 344 390 13
E 345 391 13
E 346 392 13
E 348 393 13
E 349 394 13
E 350 395 13
E 351 396 13
E 352 397 13
E 353 398 13
E 354 399 13
E 355 400 13
E 356 401 13
E 357 402 13
E 358 403 13
E 359 404 13
E 362 405 13
E 363 406 13
E 366 409 13
E 367 410 13
E 368 411 13
E 369 412 13
E 370 413 13
E 371 414 13
E 372 415 13
E 373 416 13
E 374 417 13
E 375 418 13
E 376 419 13
E 377 420 13
E 378 421 13
E 379 422 13
E 380 423 13
E 381 424 13
E 382 425 13
E 383 426 13
E 384 427 13
E 385 428 13
E 386 430 13
E 387 431 13
E 388 389 5
E 389 390 5
E 390 391 5
E 391 392 5
E 393 394 5
E 394 395 5
E 395 396 5
E 396 397 5
E 397 398 5
E 398 399 5
E 399 400 5
E 400 401 5
E 401 402 5
E 402 403 5
E 403 404 5
E 405 406 5
E 406 407 5
E 407 408 5
E 408 409 5
E 409 410 5
E 410 411 5
E 411 412 5
E 412 413 5
E 413 414 5
E 414 415 5
E 415 416 5
E 416 417 5
E 417 418 5
E 418 419 5
E 419 420 5
E 420 421 5
E 421 422 5
E 422 423 5
E 423 424 5
E 424 425 5
E 425 426 5
E 427 428 5
E 428 429 5
E 429 430 5
E 430 431 5
E 388 432 13
E 389 433 13
E 390 434 13
E 391 435 13
E 392 436 13
E 393 437 13
E 395 438 13
E 396 439 13
E 397 440 13
E 398 441 13
E 399 442 13
E 400 443 13
E 401 444 13
E 402 445 13
E 403 446 13
E 404 447 13
E 405 448 13
E 406 449 13
E 408 450 13
E 411 451 13
E 412 452 13
E 413 453 13
E 414 454 13
E 415 455 13
E 416 456 13
E 418 457 13
E 420 458 13
E 421 459 13
E 422 460 13
E 425 463 13
E 426 464 13
E 427 466 13
E 428 467 13
E 429 468 13
E 430 469 13
E 431 470 13
E 432 433 5
E 433 434 5
E 434 435 5
E 435 436 5
E 438 439 5
E 439 440 5
E 440 441 5
E 441 442 5
E 442 443 5
E 443 444 5
E 444 445 5
E 445 446 5
E 446 447 5
E 448 449 5
E 451 452 5
E 452 453 5
E 453 454 5
E 454 455 5
E 455 456 5
E 458 459 5
E 459 460 5
E 460 461 5
E 461 462 5
E 462 463 5
E 463 464 5
E 464 465 5
E 465 466 5
E 466 467 5
E 467 468 5
E 468 469 5
E 469 470 5
E 432 471 13
E 433 472 13
E 434 473 13
E 436 474 13
E 437 476 13
E 438 477 13
E 439 478 13
E 440 479 13
E 441 480 13
E 442 481 13
E 443 482 13
E 445 483 13
E 446 484 13
E 447 485 13
E 448 488 13
E 449 489 13
E 450 490 13
E 451 491 13
E 452 492 13
E 455 493 13
E 456 494 13
E 457 495 13
E 458 496 13
E 459 497 13
E 460 498 13
E 461 499 13
E 462 500 13
E 463 501 13
E 464 502 13
E 465 503 13
E 466 504 13
E 467 505 13
E 468 506 13
E 469 507 13
E 470 508 13
E 471 472 5
E 472 473 5
E 474 475 5
E 475 476 5
E 477 478 5
E 478 479 5
E 479 480 5
E 480 481 5
E 481 482 5
E 483 484 5
E 484 485 5
E 485 486 5
E 486 487 5
E 487 488 5
E 488 489 5
E 491 492 5
E 493 494 5
E 496 497 5
E 497 498 5
E 498 499 5
E 499 500 5
E 500 501 5
E 501 502 5
E 502 503 5
E 503 504 5
E 504 505 5
E 505 506 5
E 506 507 5
E 507 508 5
E 471 509 13
E 472 510 13
E 473 511 13
E 474 512 13
E 475 513 13
E 476 514 13
E 477 516 13
E 478 517 13
E 479 518 13
E 480 519 13
E 481 520 13
E 482 521 13
E 483 523 13
E 484 524 13
E 485 525 13
E 486 526 13
E 487 527 13
E 488 528 13
E 489 529 13
E 490 531 13
E 491 534 13
E 492 535 13
E 493 536 13
E 494 537 13
E 495 539 13
E 496 541 13
E 497 542 13
E 498 543 13
E 499 544 13
E 500 545 13
E 501 546 13
E 502 547 13
E 504 548 13
E 506 550 13
E 507 551 13
E 508 552 13
E 509 510 5
E 510 511 5
E 512 513 5
E 513 514 5
E 514 515 5
E 515 516 5
E 516 517 5
E 517 518 5
E 518 519 5
E 519 520 5
E 520 521 5
E 521 522 5
E 522 523 5
E 523 524 5
E 524 525 5
E 525 526 5
E 526 527 5
E 527 528 5
E 528 529 5
E 529 530 5
E 530 531 5
E 531 532 5
E 532 533 5
E 533 534 5
E 534 535 5
E 536 537 5
E 537 538 5
E 538 539 5
E 539 540 5
E 540 541 5
E 541 542 5
E 542 543 5
E 543 544 5
E 544 545 5
E 545 546 5
E 546 547 5
E 548 549 5
E 549 550 5
E 550 551 5
E 551 552 5
E 509 553 13
E 510 554 13
E 511 555 13
E 512 557 13
E 513 558 13
E 516 561 13
E 517 562 13
E 518 563 13
E 520 565 13
E 521 566 13
E 522 567 13
E 523 568 13
E 524 569 13
E 525 570 13
E 526 571 13
E 527 572 13
E 528 573 13
E 529 574 13
E 530 575 13
E 531 576 13
E 532 577 13
E 533 578 13
E 534 579 13
E 535 580 13
E 536 583 13
E 537 584 13
E 538 585 13
E 539 586 13
E 540 587 13
E 541 588 13
E 544 589 13
E 545 590 13
E 546 591 13
E 547 592 13
E 548 593 13
E 549 594 13
E 550 595 13
E 551 596 13
E 552 597 13
E 553 554 5
E 554 555 5
E 555 556 5
E 556 557 5
E 557 558 5
E 558 559 5
E 559 560 5
E 560 561 5
E 561 562 5
E 562 563 5
E 563 564 5
E 564 565 5
E 565 566 5
E 566 567 5
E 567 568 5
E 568 569 5
E 569 570 5
E 570 571 5
E 571 572 5
E 572 573 5
E 573 574 5
E 574 575 5
E 575 576 5
E 576 577 5
E 577 578 5
E 578 579 5
E 579 580 5
E 580 581 5
E 581 582 5
E 582 583 5
E 583 584 5
E 584 585 5
E 585 586 5
E 586 587 5
E 587 588 5
E 589 590 5
E 590 591 5
E 591 592 5
E 593 594 5
E 594 595 5
E 595 596 5
E 596 597 5
E 553 598 13
E 554 599 13
E 555 600 13
E 556 601 13
E 557 602 13
E 558 603 13
E 559 604 13
E 560 605 13
E 561 606 13
E 562 607 13
E 563 608 13
E 564 609 13
E 565 610 13
E 566 611 13
E 567 612 13
E 568 613 13
E 569 614 13
E 570 615 13
E 571 616 13
E 572 617 13
E 573 618 13
E 574 619 13
E 575 620 13
E 576 621 13
E 577 622 13
E 578 623 13
E 579 624 13
E 580 625 13
E 581 626 13
E 582 627 13
E 583 628 13
E 584 629 13
E 585 630 13
E 586 631 13
E 587 632 13
E 588 633 13
E 589 634 13
E 590 635 13
E 591 636 13
E 592 637 13
E 593 639 13
E 594 640 13
E 595 641 13
E 597 642 13
E 598 599 5
E 599 600 5
E 600 601 5
E 601 602 5
E 602 603 5
E 603 604 5
E 604 605 5
E 605 606 5
E 606 607 5
E 607 608 5
E 608 609 5
E 609 610 5
E 610 611 5
E 611 612 5
E 612 613 5
E 613 614 5
E 614 615 5
E 615 616 5
E 616 617 5
E 617 618 5
E 618 619 5
E 619 620 5
E 620 621 5
E 621 622 5
E 622 623 5
E 623 624 5
E 624 625 5
E 625 626 5
E 626 627 5
E 627 628 5
E 628 629 5
E 629 630 5
E 630 631 5
E 631 632 5
E 632 633 5
E 634 635 5
E 635 636 5
E 636 637 5
E 637 638 5
E 638 639 5
E 639 640 5
E 640 641 5
E 598 643 13
E 599 644 13
E 600 645 13
E 601 646 13
E 602 647 13
E 603 648 13
E 604 649 13
E 605 650 13
E 606 651 13
E 609 654 13
E 610 655 13
E 611 656 13
E 612 657 13
E 614 659 13
E 615 660 13
E 616 661 13
E 618 663 13
E 619 664 13
E 620 665 13
E 621 666 13
E 622 667 13
E 623 668 13
E 624 669 13
E 625 670 13
E 626 671 13
E 627 672 13
E 628 673 13
E 629 674 13
E 630 675 13
E 631 676 13
E 632 677 13
E 633 678 13
E 634 681 13
E 635 682 13
E 636 683 13
E 637 684 13
E 638 685 13
E 639 686 13
E 640 687 13
E 641 688 13
E 642 689 13
E 643 644 5
E 644 645 5
E 645 646 5
E 646 647 5
E 647 648 5
E 648 649 5
E 649 650 5
E 650 651 5
E 651 652 5
E 652 653 5
E 653 654 5
E 654 655 5
E 655 656 5
E 656 657 5
E 657 658 5
E 658 659 5
E 659 660 5
E 660 661 5
E 661 662 5
E 662 663 5
E 663 664 5
E 664 665 5
E 665 666 5
E 666 667 5
E 667 668 5
E 668 669 5
E 669 670 5
E 670 671 5
E 671 672 5
E 672 673 5
E 673 674 5
E 674 675 5
E 675 676 5
E 676 677 5
E 677 678 5
E 678 679 5
E 679 680 5
E 680 681 5
E 681 682 5
E 682 683 5
E 683 684 5
E 684 685 5
E 685 686 5
E 686 687 5
E 687 688 5
E 643 690 13
E 645 691 13
E 646 692 13
E 647 693 13
E 648 694 13
E 649 695 13
E 650 696 13
E 651 697 13
E 652 698 13
E 653 699 13
E 654 700 13
E 655 701 13
E 656 702 13
E 657 703 13
E 658 704 13
E 659 705 13
E 660 706 13
E 661 707 13
E 662 708 13
E 663 709 13
E 664 710 13
E 665 711 13
E 666 712 13
E 667 713 13
E 668 714 13
E 669 715 13
E 670 716 13
E 671 717 13
E 672 718 13
E 673 719 13
E 674 720 13
E 675 721 13
E 676 722 13
E 678 723 13
E 679 724 13
E 680 725 13
E 681 726 13
E 684 729 13
E 685 730 13
E 686 731 13
E 688 733 13
E 689 735 13
E 691 692 5
E 692 693 5
E 693 694 5
E 694 695 5
E 695 696 5
E 696 697 5
E 697 698 5
E 698 699 5
E 699 700 5
E 700 701 5
E 701 702 5
E 702 703 5
E 703 704 5
E 704 705 5
E 705 706 5
E 706 707 5
E 707 708 5
E 708 709 5
E 709 710 5
E 710 711 5
E 711 712 5
E 712 713 5
E 713 714 5
E 714 715 5
E 715 716 5
E 716 717 5
E 717 718 5
E 718 719 5
E 719 720 5
E 720 721 5
E 721 722 5
E 723 724 5
E 724 725 5
E 725 726 5
E 726 727 5
E 727 728 5
E 728 729 5
E 729 730 5
E 730 731 5
E 731 732 5
E 732 733 5
E 733 734 5
E 734 735 5
END

SECTION Terminals
Terminals 21
T 2
T 15
T 41
T 91
T 145
T 168
T 224
T 228
T 298
T 337
T 347
T 351
T 360
T 409
T 417
T 419
T 435
T 453
T 503
T 542
T 596
END

EOF
